9
0 59 69 90 56 67 47 16 44
59 0 12 54 72 60 55 41 31
69 12 0 64 67 64 98 26 53
90 54 64 0 37 74 35 11 34
56 72 67 37 0 10 50 45 67
67 60 64 74 10 0 48 23 58
47 55 98 35 50 48 0 46 34
16 41 26 11 45 23 46 0 57
44 31 53 34 67 58 34 57 0
